param n := 6;

set archi := (1,2) (1,4) (2,3) (2,6) (3,4) (4,1) (4,5) (5,1) (5,6) (6,3) (1,3) (3,6) (5,2);

param origin := 1;
param destinazione := 6;

param Costo :=
1,2 8
1,4 6
2,3 2
2,6 5
3,4 5
4,1 6
4,5 2
5,1 7
5,6 4
6,3 8
1,3 4
3,6 1
5,2 9
;
